
Gurobi 11.0.3 (linux64) logging started Sat Nov 23 23:01:17 2024

Set parameter LogFile to value "/home/yihong/Coding/OR_SUC/SUC_results_bigM100000_thread4/case24_ieee_rts_theta0.1_epsilon0.025_gurobi_seed950000_num_gen100_N_WDR150_load_scaling_factor1_proposed_T24quadra_cost.txt"
Set parameter TimeLimit to value 3600
Gurobi Optimizer version 11.0.3 build v11.0.3rc0 (linux64 - "Ubuntu 20.04.6 LTS")

CPU model: AMD EPYC 7532 32-Core Processor, instruction set [SSE2|AVX|AVX2]
Thread count: 64 physical cores, 128 logical processors, using up to 4 threads

Optimize a model with 53864 rows, 29911 columns and 911262 nonzeros
Model fingerprint: 0x235e9406
Model has 2400 quadratic constraints
Variable types: 27511 continuous, 2400 integer (2400 binary)
Coefficient statistics:
  Matrix range     [3e-04, 3e+03]
  QMatrix range    [2e-03, 8e-03]
  QLMatrix range   [3e-01, 6e+01]
  Objective range  [1e+00, 1e+00]
  Bounds range     [1e+00, 1e+00]
  RHS range        [1e+00, 9e+03]
Presolve removed 43687 rows and 12761 columns
Presolve time: 0.27s
Presolved: 10177 rows, 17150 columns, 53369 nonzeros
Presolved model has 2400 quadratic constraint(s)
Variable types: 14750 continuous, 2400 integer (2400 binary)

Root relaxation: objective 4.008594e+04, 8064 iterations, 0.20 seconds (0.29 work units)

    Nodes    |    Current Node    |     Objective Bounds      |     Work
 Expl Unexpl |  Obj  Depth IntInf | Incumbent    BestBd   Gap | It/Node Time

     0     0 40085.9356    0   24          - 40085.9356      -     -    0s
     0     0 314446.259    0  737          - 314446.259      -     -    1s
     0     0 346181.964    0  667          - 346181.964      -     -    1s
     0     0 601587.447    0  679          - 601587.447      -     -    1s
     0     0 601628.866    0  465          - 601628.866      -     -    1s
     0     0 601834.939    0  381          - 601834.939      -     -    1s
     0     0 601835.398    0  381          - 601835.398      -     -    1s
     0     0 601836.617    0  381          - 601836.617      -     -    1s
     0     2 601836.617    0  381          - 601836.617      -     -    2s
H  600   530                    602052.99961 601860.126  0.03%  27.4    4s
*  600   530             184    602052.99961 601860.126  0.03%  27.5    4s

Cutting planes:
  Gomory: 4
  Implied bound: 334
  MIR: 78
  Flow cover: 140

Explored 787 nodes (41037 simplex iterations) in 5.25 seconds (7.24 work units)
Thread count was 4 (of 128 available processors)

Solution count 2: 602053 602053 

Optimal solution found (tolerance 1.00e-03)
Warning: max constraint violation (8.2687e-07) exceeds tolerance
Best objective 6.020529996151e+05, best bound 6.018601260655e+05, gap 0.0320%
